51 6
15 16 14 13 15 14
1 0 0 0 0 0 0 3 2 3 4
10 0 10 9 0 3 0 4 5 6 7 8
10 0 0 10 0 0 5 4 51 6 7 8
9 5 1 3 2 6 0 4 5 6 7 8
6 0 0 5 2 0 0 3 9 10 11
1 10 0 0 10 0 7 2 10 11
4 7 8 0 0 4 0 4 9 10 11 12
4 10 0 0 8 0 9 4 9 10 11 12
9 4 0 6 7 1 3 1 13
1 7 7 0 8 6 0 3 13 14 15
4 0 0 3 0 10 9 3 13 15 16
9 10 0 10 1 4 0 4 13 14 15 16
9 0 0 0 6 10 9 3 17 18 19
4 2 2 0 3 1 0 4 17 18 19 20
1 9 0 0 6 10 6 4 17 18 19 20
4 5 7 6 0 8 0 4 17 18 19 20
9 0 2 0 10 0 6 4 21 22 23 24
6 0 8 2 0 2 0 4 21 22 23 24
10 0 9 4 5 0 2 4 21 22 23 24
5 1 3 2 0 0 3 4 21 22 23 24
9 0 0 0 4 1 0 3 25 26 28
8 0 2 0 3 0 0 4 25 26 27 28
3 0 9 0 0 6 0 4 25 26 27 28
2 5 5 8 2 0 6 4 25 26 27 28
4 3 0 0 9 0 6 2 30 32
2 2 0 0 0 10 0 4 29 30 31 32
9 0 0 7 0 0 0 2 29 31
5 2 8 8 0 0 0 2 30 31
5 0 2 3 0 0 0 3 33 34 36
4 0 0 5 0 2 8 4 33 34 35 36
7 0 7 0 0 0 9 4 33 34 35 36
3 7 4 5 0 3 0 3 33 34 36
9 0 7 0 0 5 0 4 37 38 39 40
7 3 7 0 0 6 0 4 37 38 39 40
8 0 0 0 7 3 0 3 37 39 40
5 9 0 1 0 0 0 4 37 38 39 40
8 9 6 0 0 6 4 2 42 44
4 2 1 0 2 5 4 4 41 42 43 44
6 2 10 0 4 0 1 4 41 42 43 44
7 6 4 0 1 2 5 4 41 42 43 44
1 5 0 9 0 0 0 3 45 47 48
7 0 3 0 0 10 0 3 46 47 48
6 10 6 4 0 8 3 3 45 47 48
8 0 0 7 6 3 2 3 45 46 47
9 0 6 5 0 0 5 2 49 50
9 4 0 4 1 0 0 2 49 50
5 0 0 0 2 0 8 2 49 50
9 0 6 5 2 7 0 1 49
10 0 0 0 6 0 9 1 51
1 0 0 0 8 0 0 1 51
0 0 0 0 0 0 0 0
